(set-info :smt-lib-version 2.6)
(set-logic AUFBVFPDTNIRA)
(set-info :source |
Generated by: AdaCore
Generated on: 2020-03-06
Generator: SPARK
Application: Program verification for Ada
Target solver: Z3
|)
(set-info :license "https://creativecommons.org/licenses/by/4.0/")
(set-info :category "industrial")
(set-info :status unknown)
;;; generated by SMT-LIB2 driver
;;; SMT-LIB2 driver: bit-vectors, common part
;;; SMT-LIB2: integer arithmetic
(declare-sort string 0)

(declare-datatypes () ((tuple0 (Tuple0))))
(declare-sort us_private 0)

(declare-fun private__bool_eq (us_private us_private) Bool)

(declare-const us_null_ext__ us_private)

(declare-sort us_type_of_heap 0)

(declare-datatypes ()
((us_type_of_heap__ref
 (us_type_of_heap__refqtmk (us_type_of_heap__content us_type_of_heap)))))
(declare-sort us_image 0)

(declare-datatypes () ((int__ref (int__refqtmk (int__content Int)))))
(declare-datatypes () ((bool__ref (bool__refqtmk (bool__content Bool)))))
(declare-datatypes ()
((us_fixed__ref (us_fixed__refqtmk (us_fixed__content Int)))))
(declare-datatypes () ((real__ref (real__refqtmk (real__content Real)))))
(declare-datatypes ()
((us_private__ref (us_private__refqtmk (us_private__content us_private)))))
(define-fun int__ref___projection ((a int__ref)) Int (int__content a))

(define-fun us_fixed__ref___projection ((a us_fixed__ref)) Int (us_fixed__content
                                                               a))

(define-fun bool__ref___projection ((a bool__ref)) Bool (bool__content a))

(define-fun real__ref___projection ((a real__ref)) Real (real__content a))

(define-fun us_private__ref___projection ((a us_private__ref)) us_private 
  (us_private__content a))

(declare-sort integer 0)

(declare-fun integerqtint (integer) Int)

;; integer'axiom
  (assert
  (forall ((i integer))
  (and (<= (- 2147483648) (integerqtint i)) (<= (integerqtint i) 2147483647))))

(define-fun in_range ((x Int)) Bool (and (<= (- 2147483648) x)
                                    (<= x 2147483647)))

(declare-fun attr__ATTRIBUTE_IMAGE (Int) us_image)

(declare-fun attr__ATTRIBUTE_VALUE__pre_check (us_image) Bool)

(declare-fun attr__ATTRIBUTE_VALUE (us_image) Int)

(declare-fun user_eq (integer integer) Bool)

(declare-const dummy integer)

(declare-datatypes ()
((integer__ref (integer__refqtmk (integer__content integer)))))
(define-fun integer__ref_integer__content__projection ((a integer__ref)) integer 
  (integer__content a))

(define-fun to_rep ((x integer)) Int (integerqtint x))

(declare-fun of_rep (Int) integer)

;; inversion_axiom
  (assert
  (forall ((x integer)) (! (= (of_rep (to_rep x)) x) :pattern ((to_rep x)) )))

;; range_axiom
  (assert
  (forall ((x integer)) (! (in_range (to_rep x)) :pattern ((to_rep x)) )))

;; coerce_axiom
  (assert
  (forall ((x Int))
  (! (=> (in_range x) (= (to_rep (of_rep x)) x)) :pattern ((to_rep
                                                           (of_rep x))) )))

(define-fun dynamic_invariant ((temp___expr_18 Int) (temp___is_init_14 Bool)
  (temp___skip_constant_15 Bool) (temp___do_toplevel_16 Bool)
  (temp___do_typ_inv_17 Bool)) Bool (=>
                                    (or (= temp___is_init_14 true)
                                    (<= (- 2147483648) 2147483647)) (in_range
                                    temp___expr_18)))

(define-fun abs1 ((x Int)) Int (ite (<= 0 x) x (- x)))

;; Abs_le
  (assert
  (forall ((x Int) (y Int)) (= (<= (abs1 x) y) (and (<= (- y) x) (<= x y)))))

;; Abs_pos
  (assert (forall ((x Int)) (<= 0 (abs1 x))))

(declare-fun div1 (Int Int) Int)

(declare-fun mod1 (Int Int) Int)

;; Div_mod
  (assert
  (forall ((x Int) (y Int))
  (=> (not (= y 0)) (= x (+ (* y (div1 x y)) (mod1 x y))))))

;; Div_bound
  (assert
  (forall ((x Int) (y Int))
  (=> (and (<= 0 x) (< 0 y)) (and (<= 0 (div1 x y)) (<= (div1 x y) x)))))

;; Mod_bound
  (assert
  (forall ((x Int) (y Int))
  (=> (not (= y 0))
  (and (< (- (abs1 y)) (mod1 x y)) (< (mod1 x y) (abs1 y))))))

;; Div_sign_pos
  (assert
  (forall ((x Int) (y Int)) (=> (and (<= 0 x) (< 0 y)) (<= 0 (div1 x y)))))

;; Div_sign_neg
  (assert
  (forall ((x Int) (y Int)) (=> (and (<= x 0) (< 0 y)) (<= (div1 x y) 0))))

;; Mod_sign_pos
  (assert
  (forall ((x Int) (y Int))
  (=> (and (<= 0 x) (not (= y 0))) (<= 0 (mod1 x y)))))

;; Mod_sign_neg
  (assert
  (forall ((x Int) (y Int))
  (=> (and (<= x 0) (not (= y 0))) (<= (mod1 x y) 0))))

;; Rounds_toward_zero
  (assert
  (forall ((x Int) (y Int))
  (=> (not (= y 0)) (<= (abs1 (* (div1 x y) y)) (abs1 x)))))

;; Div_1
  (assert (forall ((x Int)) (= (div1 x 1) x)))

;; Mod_1
  (assert (forall ((x Int)) (= (mod1 x 1) 0)))

;; Div_inf
  (assert
  (forall ((x Int) (y Int)) (=> (and (<= 0 x) (< x y)) (= (div1 x y) 0))))

;; Mod_inf
  (assert
  (forall ((x Int) (y Int)) (=> (and (<= 0 x) (< x y)) (= (mod1 x y) x))))

;; Div_mult
  (assert
  (forall ((x Int) (y Int) (z Int))
  (! (=> (and (< 0 x) (and (<= 0 y) (<= 0 z)))
     (= (div1 (+ (* x y) z) x) (+ y (div1 z x)))) :pattern ((div1
                                                            (+ (* x y) z) x)) )))

;; Mod_mult
  (assert
  (forall ((x Int) (y Int) (z Int))
  (! (=> (and (< 0 x) (and (<= 0 y) (<= 0 z)))
     (= (mod1 (+ (* x y) z) x) (mod1 z x))) :pattern ((mod1 (+ (* x y) z) x)) )))

(define-fun mod2 ((x Int)
  (y Int)) Int (ite (< 0 y) (mod x y) (+ (mod x y) y)))

(declare-sort even 0)

(declare-fun evenqtint (even) Int)

;; even'axiom
  (assert
  (forall ((i even))
  (and (<= (- 2147483648) (evenqtint i)) (<= (evenqtint i) 2147483647))))

(define-fun in_range1 ((x Int)) Bool (and (<= (- 2147483648) x)
                                     (<= x 2147483647)))

(declare-fun attr__ATTRIBUTE_IMAGE1 (Int) us_image)

(declare-fun attr__ATTRIBUTE_VALUE__pre_check1 (us_image) Bool)

(declare-fun attr__ATTRIBUTE_VALUE1 (us_image) Int)

(declare-fun user_eq1 (even even) Bool)

(declare-const dummy1 even)

(declare-datatypes () ((even__ref (even__refqtmk (even__content even)))))
(define-fun even__ref_even__content__projection ((a even__ref)) even 
  (even__content a))

(declare-datatypes ()
((us_split_fields
 (us_split_fieldsqtmk
 (rec__dynamic_preds__ext_even_pair__a integer)(rec__dynamic_preds__ext_even_pair__b integer)))))
(define-fun us_split_fields_rec__dynamic_preds__ext_even_pair__a__projection ((a us_split_fields)) integer 
  (rec__dynamic_preds__ext_even_pair__a a))

(define-fun us_split_fields_rec__dynamic_preds__ext_even_pair__b__projection ((a us_split_fields)) integer 
  (rec__dynamic_preds__ext_even_pair__b a))

(declare-datatypes ()
((us_split_fields__ref
 (us_split_fields__refqtmk (us_split_fields__content us_split_fields)))))
(define-fun us_split_fields__ref___split_fields__content__2__projection ((a us_split_fields__ref)) us_split_fields 
  (us_split_fields__content a))

(declare-datatypes ()
((us_rep (us_repqtmk (us_split_fields1 us_split_fields)))))
(define-fun us_rep___split_fields__2__projection ((a us_rep)) us_split_fields 
  (us_split_fields1 a))

(define-fun bool_eq ((a us_rep)
  (b us_rep)) Bool (ite (and
                        (= (to_rep
                           (rec__dynamic_preds__ext_even_pair__a
                           (us_split_fields1 a))) (to_rep
                                                  (rec__dynamic_preds__ext_even_pair__a
                                                  (us_split_fields1 b))))
                        (= (to_rep
                           (rec__dynamic_preds__ext_even_pair__b
                           (us_split_fields1 a))) (to_rep
                                                  (rec__dynamic_preds__ext_even_pair__b
                                                  (us_split_fields1 b)))))
                   true false))

(declare-const value__size Int)

(declare-const object__size Int)

(declare-const alignment Int)

;; value__size_axiom
  (assert (<= 0 value__size))

;; object__size_axiom
  (assert (<= 0 object__size))

;; alignment_axiom
  (assert (<= 0 alignment))

(declare-const dynamic_preds__ext_even_pair__a__first__bit Int)

(declare-const dynamic_preds__ext_even_pair__a__last__bit Int)

(declare-const dynamic_preds__ext_even_pair__a__position Int)

;; dynamic_preds__ext_even_pair__a__first__bit_axiom
  (assert (<= 0 dynamic_preds__ext_even_pair__a__first__bit))

;; dynamic_preds__ext_even_pair__a__last__bit_axiom
  (assert
  (< dynamic_preds__ext_even_pair__a__first__bit dynamic_preds__ext_even_pair__a__last__bit))

;; dynamic_preds__ext_even_pair__a__position_axiom
  (assert (<= 0 dynamic_preds__ext_even_pair__a__position))

(declare-const dynamic_preds__ext_even_pair__b__first__bit Int)

(declare-const dynamic_preds__ext_even_pair__b__last__bit Int)

(declare-const dynamic_preds__ext_even_pair__b__position Int)

;; dynamic_preds__ext_even_pair__b__first__bit_axiom
  (assert (<= 0 dynamic_preds__ext_even_pair__b__first__bit))

;; dynamic_preds__ext_even_pair__b__last__bit_axiom
  (assert
  (< dynamic_preds__ext_even_pair__b__first__bit dynamic_preds__ext_even_pair__b__last__bit))

;; dynamic_preds__ext_even_pair__b__position_axiom
  (assert (<= 0 dynamic_preds__ext_even_pair__b__position))

(declare-fun user_eq2 (us_rep us_rep) Bool)

(declare-const dummy2 us_rep)

(declare-datatypes ()
((ext_even_pair__ref
 (ext_even_pair__refqtmk (ext_even_pair__content us_rep)))))
(define-fun ext_even_pair__ref_ext_even_pair__content__projection ((a ext_even_pair__ref)) us_rep 
  (ext_even_pair__content a))

(declare-const attr__ATTRIBUTE_ADDRESS Int)

(define-fun dynamic_invariant1 ((temp___expr_189 us_rep)
  (temp___is_init_185 Bool) (temp___skip_constant_186 Bool)
  (temp___do_toplevel_187 Bool)
  (temp___do_typ_inv_188 Bool)) Bool (=> (= temp___do_toplevel_187 true)
                                     (=> (= temp___is_init_185 true)
                                     (and
                                     (let ((temp___191 (to_rep
                                                       (rec__dynamic_preds__ext_even_pair__a
                                                       (us_split_fields1
                                                       temp___expr_189)))))
                                     (and (in_range1 temp___191)
                                     (= (mod2 temp___191 2) 0)))
                                     (let ((temp___193 (to_rep
                                                       (rec__dynamic_preds__ext_even_pair__b
                                                       (us_split_fields1
                                                       temp___expr_189)))))
                                     (and (in_range1 temp___193)
                                     (= (mod2 temp___193 2) 0)))))))

(define-fun dynamic_predicate ((temp___199 us_rep)) Bool (and
                                                         (let ((temp___201 
                                                         (to_rep
                                                         (rec__dynamic_preds__ext_even_pair__a
                                                         (us_split_fields1
                                                         temp___199)))))
                                                         (and (in_range1
                                                         temp___201)
                                                         (= (mod2 temp___201
                                                            2) 0)))
                                                         (let ((temp___203 
                                                         (to_rep
                                                         (rec__dynamic_preds__ext_even_pair__b
                                                         (us_split_fields1
                                                         temp___199)))))
                                                         (and (in_range1
                                                         temp___203)
                                                         (= (mod2 temp___203
                                                            2) 0)))))

(declare-const i8s us_rep)

(declare-const attr__ATTRIBUTE_ADDRESS1 Int)

(define-fun dynamic_invariant2 ((temp___expr_168 Int)
  (temp___is_init_164 Bool) (temp___skip_constant_165 Bool)
  (temp___do_toplevel_166 Bool)
  (temp___do_typ_inv_167 Bool)) Bool (and
                                     (=>
                                     (or (= temp___is_init_164 true)
                                     (<= (- 2147483648) 2147483647))
                                     (in_range1 temp___expr_168))
                                     (=> (= temp___do_toplevel_166 true)
                                     (=> (= temp___is_init_164 true)
                                     (= (mod2 temp___expr_168 2) 0)))))

(define-fun dynamic_predicate1 ((temp___172 Int)) Bool (= (mod2 temp___172 2) 0))

(declare-const x__split_fields us_split_fields)

;; Assume
  (assert (dynamic_invariant1 i8s true false true true))

;; Assume
  (assert (dynamic_invariant1 i8s true false true true))

;; Assume
  (assert (dynamic_invariant1 (us_repqtmk x__split_fields) true false true
  true))

(declare-const o Int)

;; Ensures
  (assert
  (= (to_rep (rec__dynamic_preds__ext_even_pair__a x__split_fields)) 
  o))

(declare-const dynamic_preds__init_even__x Int)

;; Ensures
  (assert (dynamic_invariant dynamic_preds__init_even__x true true true
  true))

(declare-const o1 integer)

;; Ensures
  (assert (= (to_rep o1) dynamic_preds__init_even__x))

(define-fun temp___243 () us_rep (us_repqtmk
                                 (us_split_fieldsqtmk o1
                                 (rec__dynamic_preds__ext_even_pair__b
                                 x__split_fields))))

(assert
;; defqtvc
 ;; File "dynamic_preds.ads", line 23, characters 0-0
  (not (dynamic_predicate temp___243)))
(check-sat)

(exit)
